Route #1: 127 17 149 89 14 1 55 60 21 9 27 117 97 77 161
Route #2: 15 139 126 138 133 107 122 84 160 85 121 147 159 135 72
Route #3: 29 10 105 144 119 141 115 156 59
Route #4: 143 153 110 128 124 134 148 109 2 82 118 30 157 112 40 103
Route #5: 136 91 158 108 137 39 146 151 101 4 87 132 93 125 92 155
Route #6: 23 24 49 6 13 71 37 131 57 32 16 5 120 81 74
Route #7: 50 45 152 28 26 48 11 73 38 58 68 145 90 150
Route #8: 53 86 130 99 35 36 94 100 66 56 123 43 142 102 116 52
Route #9: 54 78 20 67 62 114 95 129 96 88 106 31 140 154 111 80
Route #10: 8 76 41 61 46 69 65 42 51 3 33 75 44 7 34
Route #11: 25 47 98 83 104 63 113 70 12 64 18 19 22 79
Cost 14138
